examples/inputs/input27.dzn
n = 65;
l = 450;
s = 450;
r = 450;
f = 100;
forbidden = [| 21, 37
    | 39, 45
    | 44, 19
    | 32, 32
    | 19, 63
    | 25, 38
    | 25, 58
    | 62, 59
    | 36, 21
    | 44, 30
    | 2, 12
    | 37, 13
    | 10, 35
    | 27, 16
    | 21, 36
    | 9, 51
    | 7, 50
    | 1, 38
    | 60, 1
    | 44, 60
    | 51, 3
    | 37, 22
    | 6, 52
    | 14, 41
    | 13, 23
    | 23, 9
    | 9, 45
    | 10, 46
    | 15, 28
    | 42, 13
    | 59, 56
    | 34, 49
    | 21, 46
    | 11, 64
    | 1, 19
    | 1, 61
    | 37, 16
    | 54, 1
    | 35, 48
    | 37, 20
    | 62, 61
    | 48, 51
    | 30, 3
    | 38, 10
    | 23, 22
    | 22, 7
    | 19, 52
    | 16, 7
    | 55, 9
    | 64, 22
    | 4, 26
    | 54, 14
    | 32, 38
    | 21, 50
    | 38, 30
    | 51, 65
    | 25, 29
    | 34, 54
    | 4, 31
    | 16, 35
    | 24, 61
    | 48, 52
    | 23, 17
    | 22, 27
    | 18, 13
    | 19, 54
    | 48, 64
    | 26, 23
    | 18, 27
    | 20, 8
    | 46, 18
    | 43, 33
    | 64, 45
    | 41, 16
    | 20, 4
    | 19, 56
    | 26, 6
    | 63, 9
    | 52, 50
    | 60, 31
    | 2, 5
    | 4, 51
    | 54, 20
    | 65, 17
    | 44, 29
    | 13, 30
    | 43, 55
    | 9, 64
    | 26, 13
    | 41, 40
    | 42, 45
    | 44, 15
    | 49, 59
    | 58, 22
    | 20, 1
    | 50, 37
    | 42, 47
    | 28, 49
    | 62, 14
    | 21, 1
    |];