examples/inputs/input27.lp
#const n = 65.
#const l = 450.
#const s = 450.
#const r = 450.
#const f = 100.
val(21, 37, xxx).
val(39, 45, xxx).
val(44, 19, xxx).
val(32, 32, xxx).
val(19, 63, xxx).
val(25, 38, xxx).
val(25, 58, xxx).
val(62, 59, xxx).
val(36, 21, xxx).
val(44, 30, xxx).
val(2, 12, xxx).
val(37, 13, xxx).
val(10, 35, xxx).
val(27, 16, xxx).
val(21, 36, xxx).
val(9, 51, xxx).
val(7, 50, xxx).
val(1, 38, xxx).
val(60, 1, xxx).
val(44, 60, xxx).
val(51, 3, xxx).
val(37, 22, xxx).
val(6, 52, xxx).
val(14, 41, xxx).
val(13, 23, xxx).
val(23, 9, xxx).
val(9, 45, xxx).
val(10, 46, xxx).
val(15, 28, xxx).
val(42, 13, xxx).
val(59, 56, xxx).
val(34, 49, xxx).
val(21, 46, xxx).
val(11, 64, xxx).
val(1, 19, xxx).
val(1, 61, xxx).
val(37, 16, xxx).
val(54, 1, xxx).
val(35, 48, xxx).
val(37, 20, xxx).
val(62, 61, xxx).
val(48, 51, xxx).
val(30, 3, xxx).
val(38, 10, xxx).
val(23, 22, xxx).
val(22, 7, xxx).
val(19, 52, xxx).
val(16, 7, xxx).
val(55, 9, xxx).
val(64, 22, xxx).
val(4, 26, xxx).
val(54, 14, xxx).
val(32, 38, xxx).
val(21, 50, xxx).
val(38, 30, xxx).
val(51, 65, xxx).
val(25, 29, xxx).
val(34, 54, xxx).
val(4, 31, xxx).
val(16, 35, xxx).
val(24, 61, xxx).
val(48, 52, xxx).
val(23, 17, xxx).
val(22, 27, xxx).
val(18, 13, xxx).
val(19, 54, xxx).
val(48, 64, xxx).
val(26, 23, xxx).
val(18, 27, xxx).
val(20, 8, xxx).
val(46, 18, xxx).
val(43, 33, xxx).
val(64, 45, xxx).
val(41, 16, xxx).
val(20, 4, xxx).
val(19, 56, xxx).
val(26, 6, xxx).
val(63, 9, xxx).
val(52, 50, xxx).
val(60, 31, xxx).
val(2, 5, xxx).
val(4, 51, xxx).
val(54, 20, xxx).
val(65, 17, xxx).
val(44, 29, xxx).
val(13, 30, xxx).
val(43, 55, xxx).
val(9, 64, xxx).
val(26, 13, xxx).
val(41, 40, xxx).
val(42, 45, xxx).
val(44, 15, xxx).
val(49, 59, xxx).
val(58, 22, xxx).
val(20, 1, xxx).
val(50, 37, xxx).
val(42, 47, xxx).
val(28, 49, xxx).
val(62, 14, xxx).
val(21, 1, xxx).